# Solution for model FSG
# Objective value = 8.0319303357726290e+02
x_0_1 0
x_0_2 0
x_0_3 1
x_0_4 1
x_0_5 0
x_0_6 0
x_0_7 0
x_1_2 0
x_1_3 0
x_1_4 0
x_1_5 0
x_1_6 0
x_1_7 1
x_2_1 1
x_2_3 0
x_2_4 0
x_2_5 0
x_2_6 0
x_2_7 0
x_3_1 0
x_3_2 0
x_3_4 0
x_3_5 1
x_3_6 0
x_3_7 0
x_4_1 0
x_4_2 1
x_4_3 0
x_4_5 0
x_4_6 0
x_4_7 0
x_5_1 0
x_5_2 0
x_5_3 0
x_5_4 0
x_5_6 1
x_5_7 0
U_1_1 0
U_1_2 1
U_1_3 0
U_2_1 0
U_2_2 1
U_2_3 0
U_3_1 0
U_3_2 1
U_3_3 0
U_4_1 1
U_4_2 0
U_4_3 0
U_5_1 0
U_5_2 1
U_5_3 0
U_6_1 0
U_6_2 0
U_6_3 1
U_7_1 0
U_7_2 0
U_7_3 1
TBar_0 0
TBar_1 1.7935042478317637e+01
TBar_2 1.7270211672773851e+01
TBar_3 1.1342074713856277e+01
TBar_4 6.1193218578532047e+00
TBar_5 1.9676851255551920e+01
TBar_6 30
TBar_7 30
y_0_1_1 0
y_0_1_2 0
y_0_1_3 0
y_0_1_4 0
y_0_1_5 0
y_0_2_1 0
y_0_2_2 0
y_0_2_3 0
y_0_2_4 0
y_0_2_5 0
y_0_3_1 0
y_0_3_2 0
y_0_3_3 0
y_0_3_4 0
y_0_3_5 0
y_0_4_1 0
y_0_4_2 0
y_0_4_3 0
y_0_4_4 0
y_0_4_5 0
y_0_5_1 0
y_0_5_2 0
y_0_5_3 0
y_0_5_4 0
y_0_5_5 0
y_0_6_1 0
y_0_6_2 0
y_0_6_3 0
y_0_6_4 0
y_0_6_5 0
y_0_7_1 0
y_0_7_2 0
y_0_7_3 0
y_0_7_4 0
y_0_7_5 0
y_1_2_1 0
y_1_2_2 0
y_1_2_3 0
y_1_2_4 0
y_1_2_5 0
y_1_3_1 0
y_1_3_2 0
y_1_3_3 0
y_1_3_4 0
y_1_3_5 0
y_1_4_1 0
y_1_4_2 0
y_1_4_3 0
y_1_4_4 0
y_1_4_5 0
y_1_5_1 0
y_1_5_2 0
y_1_5_3 0
y_1_5_4 0
y_1_5_5 0
y_1_6_1 0
y_1_6_2 0
y_1_6_3 0
y_1_6_4 0
y_1_6_5 0
y_1_7_1 1
y_1_7_2 1
y_1_7_3 1
y_1_7_4 1
y_1_7_5 1
y_2_1_1 0
y_2_1_2 0
y_2_1_3 0
y_2_1_4 0
y_2_1_5 0
y_2_3_1 0
y_2_3_2 0
y_2_3_3 0
y_2_3_4 0
y_2_3_5 0
y_2_4_1 0
y_2_4_2 0
y_2_4_3 0
y_2_4_4 0
y_2_4_5 0
y_2_5_1 0
y_2_5_2 0
y_2_5_3 0
y_2_5_4 0
y_2_5_5 0
y_2_6_1 0
y_2_6_2 0
y_2_6_3 0
y_2_6_4 0
y_2_6_5 0
y_2_7_1 0
y_2_7_2 0
y_2_7_3 0
y_2_7_4 0
y_2_7_5 0
y_3_1_1 0
y_3_1_2 0
y_3_1_3 0
y_3_1_4 0
y_3_1_5 0
y_3_2_1 0
y_3_2_2 0
y_3_2_3 0
y_3_2_4 0
y_3_2_5 0
y_3_4_1 0
y_3_4_2 0
y_3_4_3 0
y_3_4_4 0
y_3_4_5 0
y_3_5_1 0
y_3_5_2 0
y_3_5_3 0
y_3_5_4 0
y_3_5_5 0
y_3_6_1 0
y_3_6_2 0
y_3_6_3 0
y_3_6_4 0
y_3_6_5 0
y_3_7_1 0
y_3_7_2 0
y_3_7_3 0
y_3_7_4 0
y_3_7_5 0
y_4_1_1 0
y_4_1_2 0
y_4_1_3 0
y_4_1_4 0
y_4_1_5 0
y_4_2_1 0
y_4_2_2 0
y_4_2_3 0
y_4_2_4 0
y_4_2_5 0
y_4_3_1 0
y_4_3_2 0
y_4_3_3 0
y_4_3_4 0
y_4_3_5 0
y_4_5_1 0
y_4_5_2 0
y_4_5_3 0
y_4_5_4 0
y_4_5_5 0
y_4_6_1 0
y_4_6_2 0
y_4_6_3 0
y_4_6_4 0
y_4_6_5 0
y_4_7_1 0
y_4_7_2 0
y_4_7_3 0
y_4_7_4 0
y_4_7_5 0
y_5_1_1 0
y_5_1_2 0
y_5_1_3 0
y_5_1_4 0
y_5_1_5 0
y_5_2_1 0
y_5_2_2 0
y_5_2_3 0
y_5_2_4 0
y_5_2_5 0
y_5_3_1 0
y_5_3_2 0
y_5_3_3 0
y_5_3_4 0
y_5_3_5 0
y_5_4_1 0
y_5_4_2 0
y_5_4_3 0
y_5_4_4 0
y_5_4_5 0
y_5_6_1 0
y_5_6_2 0
y_5_6_3 0
y_5_6_4 0
y_5_6_5 0
y_5_7_1 0
y_5_7_2 0
y_5_7_3 0
y_5_7_4 0
y_5_7_5 0
Q_0_1 0
Q_0_2 0
Q_0_3 0
Q_0_4 0
Q_0_5 0
Q_1_1 2.3880999999999938e+02
Q_1_2 229.55
Q_1_3 2.3146499999999969e+02
Q_1_4 2.3176999999999950e+02
Q_1_5 2.3489499999999975e+02
Q_2_1 1.9783500000000095e+02
Q_2_2 195.15
Q_2_3 1.9499500000000097e+02
Q_2_4 196.35
Q_2_5 1.9542500000000092e+02
Q_3_1 3.6220000000008426e+01
Q_3_2 3.9590000000011678e+01
Q_3_3 3.2855000000009973e+01
Q_3_4 4.0990000000010724e+01
Q_3_5 41.05
Q_4_1 9.3390000000000356e+01
Q_4_2 9.3475000000000364e+01
Q_4_3 9.1280000000000371e+01
Q_4_4 9.1815000000000367e+01
Q_4_5 9.3575000000000358e+01
Q_5_1 8.2840000000009155e+01
Q_5_2 81.0650000000124
Q_5_3 70.7800000000107
Q_5_4 8.0645000000011450e+01
Q_5_5 84.8100000000109
Q_6_1 8.2840000000009155e+01
Q_6_2 81.0650000000124
Q_6_3 70.7800000000107
Q_6_4 8.0645000000011450e+01
Q_6_5 84.8100000000109
Q_7_1 2.3880999999999869e+02
Q_7_2 229.55
Q_7_3 2.3146499999999912e+02
Q_7_4 2.3176999999999884e+02
Q_7_5 2.3489499999999924e+02
R_6_1 0
R_6_2 0
R_6_3 0
R_6_4 0
R_6_5 0
R_7_1 3.8809999999998695e+01
R_7_2 29.55
R_7_3 3.1464999999999122e+01
R_7_4 3.1769999999998845e+01
R_7_5 3.4894999999999243e+01
L_1_1 2.68
L_1_2 2.635
L_1_3 4.825
L_1_4 4.09
L_1_5 4.4
L_2_1 6.82
L_2_2 13.94
L_2_3 12.97
L_2_4 12.34
L_2_5 14.07
L_3_1 4.95
L_3_2 7.125
L_3_3 5.005
L_3_4 6.66
L_3_5 4.27
L_4_1 1.2780000000000001e+01
L_4_2 19.015
L_4_3 11.29
L_4_4 18.235
L_4_5 14.1
L_5_1 5.615
L_5_2 2.875
L_5_3 6.6
L_5_4 6.13
L_5_5 7.04
rho_1_1 1
rho_1_2 1
rho_1_3 1
rho_1_4 1
rho_1_5 1
rho_2_1 0
rho_2_2 0
rho_2_3 0
rho_2_4 0
rho_2_5 0
rho_3_1 0
rho_3_2 0
rho_3_3 0
rho_3_4 0
rho_3_5 0
rho_4_1 0
rho_4_2 0
rho_4_3 0
rho_4_4 0
rho_4_5 0
rho_5_1 0
rho_5_2 0
rho_5_3 0
rho_5_4 0
rho_5_5 0
lambd_1_1 0
lambd_1_2 0
lambd_1_3 0
lambd_1_4 0
lambd_1_5 0
lambd_2_1 0
lambd_2_2 0
lambd_2_3 0
lambd_2_4 0
lambd_2_5 0
lambd_3_1 0
lambd_3_2 0
lambd_3_3 0
lambd_3_4 0
lambd_3_5 0
lambd_4_1 0
lambd_4_2 0
lambd_4_3 0
lambd_4_4 0
lambd_4_5 0
lambd_5_1 0
lambd_5_2 0
lambd_5_3 0
lambd_5_4 0
lambd_5_5 0
alpha_1_1 1
alpha_1_2 1
alpha_1_3 1
alpha_1_4 1
alpha_1_5 1
alpha_2_1 0
alpha_2_2 0
alpha_2_3 0
alpha_2_4 0
alpha_2_5 0
alpha_3_1 0
alpha_3_2 0
alpha_3_3 0
alpha_3_4 0
alpha_3_5 0
alpha_4_1 0
alpha_4_2 0
alpha_4_3 0
alpha_4_4 0
alpha_4_5 0
alpha_5_1 0
alpha_5_2 0
alpha_5_3 0
alpha_5_4 0
alpha_5_5 0
